
Gurobi 9.1.2 (win64) logging started Fri Sep 24 00:48:47 2021

Changed value of parameter LogFile to ../results/logs/log_samuel_kroger_2021_09_24_00_48_47.csv_27_250.log
   Prev:   Default: 
Changed value of parameter method to 3
   Prev: -1  Min: -1  Max: 5  Default: -1
